c Reduced graph for GEOM100b_0 generated by Cyril Grelier
p edge 96 1023
e 1 2
e 1 3
e 1 4
e 1 6
e 1 7
e 1 8
e 1 10
e 1 11
e 1 12
e 1 14
e 1 18
e 1 33
e 1 34
e 1 36
e 1 37
e 1 38
e 1 40
e 1 41
e 1 42
e 1 45
e 1 47
e 1 49
e 1 68
e 1 69
e 1 70
e 1 71
e 1 72
e 1 73
e 1 74
e 1 75
e 1 76
e 1 77
e 1 78
e 1 79
e 1 80
e 1 81
e 1 88
e 2 3
e 2 4
e 2 7
e 2 8
e 2 10
e 2 11
e 2 14
e 2 18
e 2 33
e 2 37
e 2 40
e 2 41
e 2 42
e 2 45
e 2 47
e 2 49
e 2 51
e 2 56
e 2 68
e 2 69
e 2 72
e 2 73
e 2 76
e 2 77
e 2 78
e 2 79
e 2 80
e 2 81
e 2 88
e 2 89
e 2 95
e 3 4
e 3 6
e 3 7
e 3 8
e 3 10
e 3 11
e 3 12
e 3 13
e 3 14
e 3 33
e 3 37
e 3 38
e 3 40
e 3 41
e 3 42
e 3 47
e 3 68
e 3 69
e 3 71
e 3 72
e 3 73
e 3 74
e 3 75
e 3 76
e 3 77
e 3 78
e 3 79
e 3 80
e 3 81
e 3 88
e 4 6
e 4 7
e 4 9
e 4 10
e 4 11
e 4 12
e 4 14
e 4 16
e 4 18
e 4 33
e 4 34
e 4 35
e 4 36
e 4 37
e 4 38
e 4 40
e 4 41
e 4 44
e 4 68
e 4 69
e 4 70
e 4 71
e 4 72
e 4 73
e 4 75
e 4 76
e 4 78
e 4 79
e 4 85
e 5 7
e 5 11
e 5 13
e 5 14
e 5 15
e 5 17
e 5 19
e 5 20
e 5 22
e 5 25
e 5 26
e 5 27
e 5 37
e 5 39
e 5 43
e 5 46
e 5 48
e 5 52
e 5 53
e 5 55
e 5 69
e 5 71
e 5 73
e 5 74
e 5 76
e 5 82
e 5 86
e 5 87
e 5 90
e 5 91
e 5 94
e 6 7
e 6 9
e 6 12
e 6 14
e 6 16
e 6 21
e 6 23
e 6 24
e 6 34
e 6 35
e 6 36
e 6 37
e 6 38
e 6 40
e 6 44
e 6 50
e 6 58
e 6 68
e 6 69
e 6 70
e 6 71
e 6 72
e 6 73
e 6 75
e 6 83
e 6 84
e 6 85
e 6 93
e 7 8
e 7 11
e 7 12
e 7 13
e 7 14
e 7 16
e 7 33
e 7 34
e 7 35
e 7 36
e 7 37
e 7 38
e 7 68
e 7 69
e 7 70
e 7 71
e 7 72
e 7 73
e 7 74
e 7 75
e 7 76
e 7 80
e 7 81
e 8 10
e 8 25
e 8 33
e 8 41
e 8 42
e 8 47
e 8 51
e 8 56
e 8 57
e 8 60
e 8 61
e 8 63
e 8 69
e 8 74
e 8 76
e 8 77
e 8 78
e 8 79
e 8 80
e 8 81
e 8 88
e 8 89
e 8 92
e 8 95
e 9 12
e 9 16
e 9 23
e 9 24
e 9 30
e 9 34
e 9 35
e 9 36
e 9 37
e 9 38
e 9 40
e 9 44
e 9 50
e 9 58
e 9 59
e 9 64
e 9 68
e 9 70
e 9 72
e 9 73
e 9 75
e 9 83
e 9 84
e 9 85
e 9 93
e 9 96
e 10 18
e 10 33
e 10 41
e 10 42
e 10 45
e 10 47
e 10 49
e 10 51
e 10 56
e 10 57
e 10 60
e 10 61
e 10 63
e 10 77
e 10 78
e 10 79
e 10 80
e 10 81
e 10 88
e 10 89
e 10 92
e 10 95
e 11 12
e 11 13
e 11 14
e 11 15
e 11 17
e 11 19
e 11 20
e 11 25
e 11 37
e 11 38
e 11 39
e 11 43
e 11 46
e 11 69
e 11 71
e 11 73
e 11 74
e 11 75
e 11 76
e 11 80
e 11 81
e 12 14
e 12 16
e 12 17
e 12 21
e 12 24
e 12 34
e 12 35
e 12 36
e 12 37
e 12 38
e 12 54
e 12 68
e 12 69
e 12 70
e 12 71
e 12 73
e 12 75
e 12 76
e 12 82
e 13 14
e 13 15
e 13 19
e 13 20
e 13 25
e 13 28
e 13 37
e 13 39
e 13 43
e 13 46
e 13 55
e 13 69
e 13 71
e 13 73
e 13 74
e 13 76
e 13 80
e 13 81
e 13 87
e 13 88
e 13 90
e 13 94
e 14 15
e 14 16
e 14 17
e 14 21
e 14 37
e 14 38
e 14 39
e 14 46
e 14 69
e 14 70
e 14 71
e 14 73
e 14 74
e 14 75
e 14 76
e 14 82
e 15 17
e 15 19
e 15 20
e 15 22
e 15 25
e 15 26
e 15 27
e 15 28
e 15 39
e 15 43
e 15 46
e 15 48
e 15 52
e 15 53
e 15 55
e 15 71
e 15 74
e 15 76
e 15 86
e 15 87
e 15 90
e 15 94
e 16 17
e 16 21
e 16 23
e 16 24
e 16 29
e 16 34
e 16 35
e 16 36
e 16 37
e 16 38
e 16 54
e 16 58
e 16 68
e 16 69
e 16 70
e 16 71
e 16 73
e 16 75
e 16 82
e 17 19
e 17 21
e 17 22
e 17 29
e 17 31
e 17 38
e 17 39
e 17 43
e 17 48
e 17 52
e 17 53
e 17 54
e 17 62
e 17 71
e 17 82
e 17 86
e 17 91
e 18 33
e 18 34
e 18 36
e 18 40
e 18 41
e 18 42
e 18 44
e 18 45
e 18 49
e 18 50
e 18 57
e 18 68
e 18 72
e 18 77
e 18 78
e 18 79
e 18 85
e 18 89
e 19 20
e 19 22
e 19 26
e 19 27
e 19 39
e 19 43
e 19 46
e 19 48
e 19 52
e 19 53
e 19 55
e 19 74
e 19 86
e 19 87
e 19 90
e 19 94
e 20 25
e 20 27
e 20 28
e 20 39
e 20 43
e 20 46
e 20 55
e 20 60
e 20 74
e 20 76
e 20 80
e 20 81
e 20 87
e 20 88
e 20 90
e 20 94
e 21 24
e 21 29
e 21 37
e 21 38
e 21 48
e 21 52
e 21 53
e 21 54
e 21 65
e 21 70
e 21 71
e 21 73
e 21 75
e 21 82
e 21 91
e 22 26
e 22 27
e 22 31
e 22 39
e 22 43
e 22 48
e 22 52
e 22 53
e 22 55
e 22 62
e 22 82
e 22 86
e 22 87
e 22 90
e 22 91
e 23 24
e 23 30
e 23 32
e 23 34
e 23 35
e 23 36
e 23 58
e 23 59
e 23 68
e 23 70
e 23 75
e 23 83
e 23 84
e 23 93
e 23 96
e 24 29
e 24 32
e 24 35
e 24 38
e 24 54
e 24 58
e 24 66
e 24 70
e 24 75
e 24 83
e 24 93
e 25 28
e 25 46
e 25 47
e 25 60
e 25 74
e 25 76
e 25 80
e 25 81
e 25 88
e 25 94
e 25 95
e 26 27
e 26 31
e 26 39
e 26 43
e 26 48
e 26 52
e 26 53
e 26 55
e 26 62
e 26 86
e 26 87
e 26 90
e 27 39
e 27 43
e 27 46
e 27 48
e 27 55
e 27 86
e 27 87
e 27 90
e 27 94
e 28 46
e 28 47
e 28 60
e 28 74
e 28 80
e 28 81
e 28 88
e 28 94
e 28 95
e 29 52
e 29 54
e 29 62
e 29 65
e 29 66
e 29 67
e 29 82
e 29 91
e 30 35
e 30 50
e 30 58
e 30 59
e 30 64
e 30 83
e 30 84
e 30 93
e 30 96
e 31 43
e 31 48
e 31 52
e 31 53
e 31 62
e 31 82
e 31 86
e 31 91
e 32 58
e 32 66
e 32 67
e 32 93
e 33 37
e 33 40
e 33 41
e 33 42
e 33 45
e 33 47
e 33 49
e 33 51
e 33 56
e 33 57
e 33 68
e 33 69
e 33 72
e 33 73
e 33 77
e 33 78
e 33 79
e 33 80
e 33 81
e 33 89
e 33 92
e 34 35
e 34 36
e 34 37
e 34 38
e 34 40
e 34 44
e 34 50
e 34 58
e 34 59
e 34 68
e 34 69
e 34 70
e 34 72
e 34 73
e 34 75
e 34 78
e 34 83
e 34 84
e 34 85
e 34 93
e 35 36
e 35 37
e 35 38
e 35 40
e 35 44
e 35 50
e 35 58
e 35 59
e 35 68
e 35 69
e 35 70
e 35 71
e 35 72
e 35 73
e 35 75
e 35 83
e 35 84
e 35 85
e 35 93
e 36 37
e 36 38
e 36 40
e 36 44
e 36 50
e 36 58
e 36 59
e 36 68
e 36 69
e 36 70
e 36 72
e 36 73
e 36 75
e 36 83
e 36 84
e 36 85
e 36 93
e 37 38
e 37 68
e 37 69
e 37 70
e 37 71
e 37 72
e 37 73
e 37 75
e 37 76
e 37 82
e 38 54
e 38 68
e 38 69
e 38 70
e 38 71
e 38 73
e 38 75
e 38 76
e 38 82
e 38 91
e 39 43
e 39 46
e 39 48
e 39 52
e 39 53
e 39 55
e 39 71
e 39 74
e 39 76
e 39 82
e 39 86
e 39 87
e 39 90
e 39 91
e 39 94
e 40 41
e 40 44
e 40 45
e 40 49
e 40 50
e 40 68
e 40 69
e 40 70
e 40 72
e 40 75
e 40 78
e 40 79
e 40 84
e 40 85
e 41 42
e 41 44
e 41 45
e 41 49
e 41 51
e 41 56
e 41 57
e 41 61
e 41 68
e 41 72
e 41 77
e 41 78
e 41 79
e 41 89
e 41 92
e 42 45
e 42 47
e 42 49
e 42 51
e 42 56
e 42 57
e 42 61
e 42 63
e 42 77
e 42 78
e 42 79
e 42 80
e 42 81
e 42 89
e 42 92
e 43 46
e 43 48
e 43 52
e 43 53
e 43 55
e 43 74
e 43 86
e 43 87
e 43 90
e 43 94
e 44 45
e 44 49
e 44 50
e 44 59
e 44 64
e 44 68
e 44 70
e 44 72
e 44 78
e 44 79
e 44 83
e 44 84
e 44 85
e 45 49
e 45 50
e 45 56
e 45 57
e 45 68
e 45 72
e 45 77
e 45 78
e 45 79
e 45 85
e 45 89
e 45 92
e 46 55
e 46 71
e 46 74
e 46 76
e 46 80
e 46 86
e 46 87
e 46 90
e 46 94
e 47 51
e 47 56
e 47 60
e 47 61
e 47 63
e 47 74
e 47 77
e 47 80
e 47 81
e 47 88
e 47 92
e 47 95
e 48 52
e 48 53
e 48 54
e 48 55
e 48 62
e 48 82
e 48 86
e 48 87
e 48 90
e 48 91
e 49 56
e 49 57
e 49 68
e 49 72
e 49 77
e 49 78
e 49 79
e 49 85
e 49 89
e 49 92
e 50 59
e 50 64
e 50 68
e 50 70
e 50 72
e 50 78
e 50 83
e 50 84
e 50 85
e 51 56
e 51 57
e 51 60
e 51 61
e 51 63
e 51 77
e 51 80
e 51 81
e 51 88
e 51 89
e 51 92
e 51 95
e 52 53
e 52 54
e 52 62
e 52 82
e 52 86
e 52 87
e 52 91
e 53 54
e 53 55
e 53 62
e 53 82
e 53 86
e 53 87
e 53 91
e 54 62
e 54 65
e 54 66
e 54 67
e 54 71
e 54 75
e 54 82
e 54 91
e 55 74
e 55 86
e 55 87
e 55 90
e 55 94
e 56 57
e 56 61
e 56 63
e 56 77
e 56 78
e 56 79
e 56 89
e 56 92
e 57 61
e 57 63
e 57 77
e 57 78
e 57 79
e 57 89
e 57 92
e 58 59
e 58 64
e 58 70
e 58 83
e 58 84
e 58 93
e 58 96
e 59 64
e 59 83
e 59 84
e 59 85
e 59 93
e 59 96
e 60 74
e 60 76
e 60 77
e 60 80
e 60 81
e 60 88
e 60 95
e 61 63
e 61 77
e 61 79
e 61 89
e 61 92
e 62 82
e 62 86
e 62 91
e 63 77
e 63 89
e 63 92
e 63 95
e 64 83
e 64 84
e 64 85
e 64 93
e 64 96
e 65 66
e 65 67
e 65 82
e 65 91
e 66 67
e 68 69
e 68 70
e 68 71
e 68 72
e 68 73
e 68 75
e 68 78
e 68 79
e 68 83
e 68 84
e 68 85
e 69 70
e 69 71
e 69 72
e 69 73
e 69 74
e 69 75
e 69 76
e 69 80
e 69 81
e 70 71
e 70 72
e 70 73
e 70 75
e 70 83
e 70 84
e 70 93
e 71 73
e 71 74
e 71 75
e 71 76
e 71 82
e 71 91
e 72 73
e 72 75
e 72 78
e 72 79
e 72 83
e 72 84
e 72 85
e 73 75
e 73 76
e 73 82
e 74 76
e 74 80
e 74 81
e 74 88
e 74 90
e 74 94
e 74 95
e 75 76
e 75 82
e 76 80
e 76 81
e 76 88
e 77 78
e 77 79
e 77 80
e 77 81
e 77 88
e 77 89
e 77 92
e 77 95
e 78 79
e 78 85
e 78 89
e 78 92
e 79 85
e 79 89
e 79 92
e 80 81
e 80 88
e 80 95
e 81 88
e 81 95
e 82 86
e 82 91
e 83 84
e 83 85
e 83 93
e 83 96
e 84 85
e 84 93
e 84 96
e 86 87
e 86 90
e 86 91
e 87 90
e 87 94
e 88 95
e 89 92
e 90 94
e 93 96
